
  22   10
  10   10   10   10   10   10   10   10   10   10

   0   0   0   0   0   0   0   0   0   0   0  13 2 3 4 5 6 7 8 9 10 18 19 20 21 
   4   0   0   0   0   0   0   0  10   0   0   5 17 16 15 14 11 
   5   0   0   0   0   0  10   0   0   0   0   4 17 16 14 11 
   8   0   0  10   0   0   0   0   0   0   0   3 15 12 11 
   8   0   0   0   0   0   0   0   0   0  10   3 14 13 11 
   4   0   0   0   0   0   0   0  10   0   0   3 13 12 11 
   1   0  10   0   0   0   0   0   0   0   0   2 12 11 
   5   0   0   0   0   0   0   0  10   0   0   1 13 
   6   0   0  10   0   0   0   0   0   0   0   1 12 
   5   0   0   0   0   0  10   0   0   0   0   1 11 
   9   0   0   0   0   0  10   0   0   0   0   1 22
   1   0   0  10   0   0   0   0   0   0   0   1 22
   1   0   0   0   0  10   0   0   0   0   0   1 22
   1   0   0  10   0   0   0   0   0   0   0   1 22
   6   0   0   0  10   0   0   0   0   0   0   1 22
  10   0   0  10   0   0   0   0   0   0   0   1 22
   8   0   0   0   0   0   0  10   0   0   0   1 22
   1   0   0   0   0  10   0   0   0   0   0   1 22
   1   0   0   0   0   0   0   0   0   0  10   1 22
  10   0   0   0   0   0   0  10   0   0   0   1 22
   1   0   0   0  10   0   0   0   0   0   0   1 22
   0   0   0   0   0   0   0   0   0   0   0   0 
